Minimize
 
Subject To
 R0: C0 + C1 + C2 + C3 + C4 + C5 = 1
 R1: C6 + C7 + C8 + C9 + C10 + C11 = 1
 R2: C12 + C13 + C14 + C15 + C16 + C17 = 1
 R3: C18 + C19 + C20 + C21 + C22 + C23 = 1
 R4: C24 + C25 + C26 + C27 + C28 + C29 = 1
 R5: C30 + C31 + C32 + C33 + C34 + C35 = 1
 R6: C36 + C37 + C38 + C39 + C40 + C41 = 1
 R7: C42 + C43 + C44 + C45 + C46 + C47 = 1
 R8: C48 + C49 + C50 + C51 + C52 + C53 = 1
 R9: C54 + C55 + C56 + C57 + C58 + C59 = 1
 R10: C60 + C61 + C62 + C63 + C64 + C65 = 1
 R11: C66 + C67 + C68 + C69 + C70 + C71 = 1
 R12: C72 + C73 + C74 + C75 + C76 + C77 = 1
 R13: C78 + C79 + C80 + C81 + C82 + C83 = 1
 R14: C84 + C85 + C86 + C87 + C88 + C89 = 1
 R15: C90 + C91 + C92 + C93 + C94 + C95 = 1
 R16: C96 + C97 + C98 + C99 + C100 + C101 = 1
 R17: C102 + C103 + C104 + C105 + C106 + C107 = 1
 R18: C108 + C109 + C110 + C111 + C112 + C113 = 1
 R19: C114 + C115 + C116 + C117 + C118 + C119 = 1
 R20: C120 + C121 + C122 + C123 + C124 + C125 = 1
 R21: C126 + C127 + C128 + C129 + C130 + C131 = 1
 R22: C132 + C133 + C134 + C135 + C136 + C137 = 1
 R23: C138 + C139 + C140 + C141 + C142 + C143 = 1
 R24: C144 + C145 + C146 + C147 + C148 + C149 = 1
 R25: C150 + C151 + C152 + C153 + C154 + C155 = 1
 R26: C156 + C157 + C158 + C159 + C160 + C161 = 1
 R27: C162 + C163 + C164 + C165 + C166 + C167 = 1
 R28: C168 + C169 + C170 + C171 + C172 + C173 = 1
 R29: C174 + C175 + C176 + C177 + C178 + C179 = 1
 R30: C180 + C181 + C182 + C183 + C184 + C185 = 1
 R31: C186 + C187 + C188 + C189 + C190 + C191 = 1
 R32: C192 + C193 + C194 + C195 + C196 + C197 = 1
 R33: C198 + C199 + C200 + C201 + C202 + C203 = 1
 R34: C204 + C205 + C206 + C207 + C208 + C209 = 1
 R35: C210 + C211 + C212 + C213 + C214 + C215 = 1
 R36: C0 = 1
 R37: C7 = 1
 R38: C87 = 1
 R39: C91 = 1
 R40: C135 = 1
 R41: C158 = 1
 R42: C166 = 1
 R43: C190 = 1
 R44: C206 = 1
 R45: C0 + C36 + C72 + C108 + C144 + C180 = 1
 R46: C6 + C42 + C78 + C114 + C150 + C186 = 1
 R47: C12 + C48 + C84 + C120 + C156 + C192 = 1
 R48: C18 + C54 + C90 + C126 + C162 + C198 = 1
 R49: C24 + C60 + C96 + C132 + C168 + C204 = 1
 R50: C30 + C66 + C102 + C138 + C174 + C210 = 1
 R51: C1 + C37 + C73 + C109 + C145 + C181 = 1
 R52: C7 + C43 + C79 + C115 + C151 + C187 = 1
 R53: C13 + C49 + C85 + C121 + C157 + C193 = 1
 R54: C19 + C55 + C91 + C127 + C163 + C199 = 1
 R55: C25 + C61 + C97 + C133 + C169 + C205 = 1
 R56: C31 + C67 + C103 + C139 + C175 + C211 = 1
 R57: C2 + C38 + C74 + C110 + C146 + C182 = 1
 R58: C8 + C44 + C80 + C116 + C152 + C188 = 1
 R59: C14 + C50 + C86 + C122 + C158 + C194 = 1
 R60: C20 + C56 + C92 + C128 + C164 + C200 = 1
 R61: C26 + C62 + C98 + C134 + C170 + C206 = 1
 R62: C32 + C68 + C104 + C140 + C176 + C212 = 1
 R63: C3 + C39 + C75 + C111 + C147 + C183 = 1
 R64: C9 + C45 + C81 + C117 + C153 + C189 = 1
 R65: C15 + C51 + C87 + C123 + C159 + C195 = 1
 R66: C21 + C57 + C93 + C129 + C165 + C201 = 1
 R67: C27 + C63 + C99 + C135 + C171 + C207 = 1
 R68: C33 + C69 + C105 + C141 + C177 + C213 = 1
 R69: C4 + C40 + C76 + C112 + C148 + C184 = 1
 R70: C10 + C46 + C82 + C118 + C154 + C190 = 1
 R71: C16 + C52 + C88 + C124 + C160 + C196 = 1
 R72: C22 + C58 + C94 + C130 + C166 + C202 = 1
 R73: C28 + C64 + C100 + C136 + C172 + C208 = 1
 R74: C34 + C70 + C106 + C142 + C178 + C214 = 1
 R75: C5 + C41 + C77 + C113 + C149 + C185 = 1
 R76: C11 + C47 + C83 + C119 + C155 + C191 = 1
 R77: C17 + C53 + C89 + C125 + C161 + C197 = 1
 R78: C23 + C59 + C95 + C131 + C167 + C203 = 1
 R79: C29 + C65 + C101 + C137 + C173 + C209 = 1
 R80: C35 + C71 + C107 + C143 + C179 + C215 = 1
 R81: C0 + C6 + C12 + C18 + C24 + C30 = 1
 R82: C36 + C42 + C48 + C54 + C60 + C66 = 1
 R83: C72 + C78 + C84 + C90 + C96 + C102 = 1
 R84: C108 + C114 + C120 + C126 + C132 + C138 = 1
 R85: C144 + C150 + C156 + C162 + C168 + C174 = 1
 R86: C180 + C186 + C192 + C198 + C204 + C210 = 1
 R87: C1 + C7 + C13 + C19 + C25 + C31 = 1
 R88: C37 + C43 + C49 + C55 + C61 + C67 = 1
 R89: C73 + C79 + C85 + C91 + C97 + C103 = 1
 R90: C109 + C115 + C121 + C127 + C133 + C139 = 1
 R91: C145 + C151 + C157 + C163 + C169 + C175 = 1
 R92: C181 + C187 + C193 + C199 + C205 + C211 = 1
 R93: C2 + C8 + C14 + C20 + C26 + C32 = 1
 R94: C38 + C44 + C50 + C56 + C62 + C68 = 1
 R95: C74 + C80 + C86 + C92 + C98 + C104 = 1
 R96: C110 + C116 + C122 + C128 + C134 + C140 = 1
 R97: C146 + C152 + C158 + C164 + C170 + C176 = 1
 R98: C182 + C188 + C194 + C200 + C206 + C212 = 1
 R99: C3 + C9 + C15 + C21 + C27 + C33 = 1
 R100: C39 + C45 + C51 + C57 + C63 + C69 = 1
 R101: C75 + C81 + C87 + C93 + C99 + C105 = 1
 R102: C111 + C117 + C123 + C129 + C135 + C141 = 1
 R103: C147 + C153 + C159 + C165 + C171 + C177 = 1
 R104: C183 + C189 + C195 + C201 + C207 + C213 = 1
 R105: C4 + C10 + C16 + C22 + C28 + C34 = 1
 R106: C40 + C46 + C52 + C58 + C64 + C70 = 1
 R107: C76 + C82 + C88 + C94 + C100 + C106 = 1
 R108: C112 + C118 + C124 + C130 + C136 + C142 = 1
 R109: C148 + C154 + C160 + C166 + C172 + C178 = 1
 R110: C184 + C190 + C196 + C202 + C208 + C214 = 1
 R111: C5 + C11 + C17 + C23 + C29 + C35 = 1
 R112: C41 + C47 + C53 + C59 + C65 + C71 = 1
 R113: C77 + C83 + C89 + C95 + C101 + C107 = 1
 R114: C113 + C119 + C125 + C131 + C137 + C143 = 1
 R115: C149 + C155 + C161 + C167 + C173 + C179 = 1
 R116: C185 + C191 + C197 + C203 + C209 + C215 = 1
 R117: C0 + C6 + C12 + C36 + C42 + C48 = 1
 R118: C18 + C24 + C30 + C54 + C60 + C66 = 1
 R119: C72 + C78 + C84 + C108 + C114 + C120 = 1
 R120: C90 + C96 + C102 + C126 + C132 + C138 = 1
 R121: C144 + C150 + C156 + C180 + C186 + C192 = 1
 R122: C162 + C168 + C174 + C198 + C204 + C210 = 1
 R123: C1 + C7 + C13 + C37 + C43 + C49 = 1
 R124: C19 + C25 + C31 + C55 + C61 + C67 = 1
 R125: C73 + C79 + C85 + C109 + C115 + C121 = 1
 R126: C91 + C97 + C103 + C127 + C133 + C139 = 1
 R127: C145 + C151 + C157 + C181 + C187 + C193 = 1
 R128: C163 + C169 + C175 + C199 + C205 + C211 = 1
 R129: C2 + C8 + C14 + C38 + C44 + C50 = 1
 R130: C20 + C26 + C32 + C56 + C62 + C68 = 1
 R131: C74 + C80 + C86 + C110 + C116 + C122 = 1
 R132: C92 + C98 + C104 + C128 + C134 + C140 = 1
 R133: C146 + C152 + C158 + C182 + C188 + C194 = 1
 R134: C164 + C170 + C176 + C200 + C206 + C212 = 1
 R135: C3 + C9 + C15 + C39 + C45 + C51 = 1
 R136: C21 + C27 + C33 + C57 + C63 + C69 = 1
 R137: C75 + C81 + C87 + C111 + C117 + C123 = 1
 R138: C93 + C99 + C105 + C129 + C135 + C141 = 1
 R139: C147 + C153 + C159 + C183 + C189 + C195 = 1
 R140: C165 + C171 + C177 + C201 + C207 + C213 = 1
 R141: C4 + C10 + C16 + C40 + C46 + C52 = 1
 R142: C22 + C28 + C34 + C58 + C64 + C70 = 1
 R143: C76 + C82 + C88 + C112 + C118 + C124 = 1
 R144: C94 + C100 + C106 + C130 + C136 + C142 = 1
 R145: C148 + C154 + C160 + C184 + C190 + C196 = 1
 R146: C166 + C172 + C178 + C202 + C208 + C214 = 1
 R147: C5 + C11 + C17 + C41 + C47 + C53 = 1
 R148: C23 + C29 + C35 + C59 + C65 + C71 = 1
 R149: C77 + C83 + C89 + C113 + C119 + C125 = 1
 R150: C95 + C101 + C107 + C131 + C137 + C143 = 1
 R151: C149 + C155 + C161 + C185 + C191 + C197 = 1
 R152: C167 + C173 + C179 + C203 + C209 + C215 = 1
Bounds
 C0 = 1
 C7 = 1
 C87 = 1
 C91 = 1
 C135 = 1
 C158 = 1
 C166 = 1
 C190 = 1
 C206 = 1
Binaries
 C0 C1 C2 C3 C4 C5 C6 C7 C8 C9 C10 C11 C12 C13 C14 C15 C16 C17 C18 C19 C20
 C21 C22 C23 C24 C25 C26 C27 C28 C29 C30 C31 C32 C33 C34 C35 C36 C37 C38
 C39 C40 C41 C42 C43 C44 C45 C46 C47 C48 C49 C50 C51 C52 C53 C54 C55 C56
 C57 C58 C59 C60 C61 C62 C63 C64 C65 C66 C67 C68 C69 C70 C71 C72 C73 C74
 C75 C76 C77 C78 C79 C80 C81 C82 C83 C84 C85 C86 C87 C88 C89 C90 C91 C92
 C93 C94 C95 C96 C97 C98 C99 C100 C101 C102 C103 C104 C105 C106 C107 C108
 C109 C110 C111 C112 C113 C114 C115 C116 C117 C118 C119 C120 C121 C122 C123
 C124 C125 C126 C127 C128 C129 C130 C131 C132 C133 C134 C135 C136 C137 C138
 C139 C140 C141 C142 C143 C144 C145 C146 C147 C148 C149 C150 C151 C152 C153
 C154 C155 C156 C157 C158 C159 C160 C161 C162 C163 C164 C165 C166 C167 C168
 C169 C170 C171 C172 C173 C174 C175 C176 C177 C178 C179 C180 C181 C182 C183
 C184 C185 C186 C187 C188 C189 C190 C191 C192 C193 C194 C195 C196 C197 C198
 C199 C200 C201 C202 C203 C204 C205 C206 C207 C208 C209 C210 C211 C212 C213
 C214 C215
End
